(set-info :smt-lib-version 2.7)
(set-logic ALL)
(set-info :source |
Generated on: 2026-06-22
Generator: pog2smtlib-2.7 github.com/CLEARSY/pog2smtlib-2.7 (-l HO_ALL -rpX)
Application: Discharging a proof obligation generated by aTelierB from an anonymized B machine
Target solver: CVC5 (--mbqi --enum-inst)
Time limit: 1200.0
|)
(set-info :license "www.gnu.org/licenses/gpl-3.0.en.html")
(set-info :category "industrial")
(set-info :status unknown)

(set-option :print-success false)
(declare-datatype C (par (T1 T2) ((maplet (fst T1) (snd T2)))))
(define-sort |Z| () Int)
(declare-sort P 1)
(define-sort |(Z x Z)| () (C |Z| |Z|))
(define-sort |POW Z| () (P |Z|))
(define-sort |POW (Z x Z)| () (P |(Z x Z)|))
(declare-fun |set.in Z| (|Z| |POW Z|) Bool)
(declare-fun |set.in (Z x Z)| (|(Z x Z)| |POW (Z x Z)|) Bool)
(define-sort |POW POW (Z x Z)| () (P |POW (Z x Z)|))
(define-sort |BOOL| () Bool)
(declare-fun |set.subseteq (Z x Z)| (|POW (Z x Z)| |POW (Z x Z)|) Bool)
(assert (!
    (forall ((s |POW (Z x Z)|) (t |POW (Z x Z)|))
      (=
        (|set.subseteq (Z x Z)| s t)
        (forall ((e |(Z x Z)|)) (=> (|set.in (Z x Z)| e s) (|set.in (Z x Z)| e t)))
      )
    )
    :named |ax.set.subseteq (Z x Z)|))
(declare-fun |set.in POW (Z x Z)| (|POW (Z x Z)| |POW POW (Z x Z)|) Bool)
(define-sort |POW BOOL| () (P |BOOL|))
(define-sort |(BOOL x Z)| () (C |BOOL| |Z|))
(declare-fun |sub-sets (Z x Z)| (|POW (Z x Z)|) |POW POW (Z x Z)|)
(assert (!
  (forall ((s |POW (Z x Z)|) (t |POW (Z x Z)|))
    (=
      (|set.in POW (Z x Z)| s (|sub-sets (Z x Z)| t))
      (|set.subseteq (Z x Z)| s t)))
  :named |ax.sub-sets (Z x Z)|))
(declare-fun |set.product Z Z| (|POW Z| |POW Z|) |POW (Z x Z)|)
(assert (!
  (forall ((s1 |POW Z|) (s2 |POW Z|))
    (forall ((p |(Z x Z)|))
      (= (|set.in (Z x Z)| p (|set.product Z Z| s1 s2))
        (and (|set.in Z| (fst p) s1) (|set.in Z| (snd p) s2)))))
  :named |ax.set.in.product.1 (Z x Z)|))
(assert (!
  (forall ((s1 |POW Z|) (s2 |POW Z|))
    (forall ((x1 |Z|) (x2 |Z|))
      (= (|set.in (Z x Z)| (maplet x1 x2) (|set.product Z Z| s1 s2))
        (and (|set.in Z| x1 s1) (|set.in Z| x2 s2)))))
  :named |ax.set.in.product.2 (Z x Z)|))
(declare-fun |set.in BOOL| (|BOOL| |POW BOOL|) Bool)
(define-sort |POW (BOOL x Z)| () (P |(BOOL x Z)|))
(declare-fun |relations Z Z| (|POW Z| |POW Z|) |POW POW (Z x Z)|)
(assert (!
  (forall ((X |POW Z|) (Y |POW Z|))
    (= (|relations Z Z| X Y)
       (|sub-sets (Z x Z)| (|set.product Z Z| X Y))))
    :named |def.relations (Z x Z)|))
(declare-fun |functions Z Z| (|POW Z| |POW Z|) |POW POW (Z x Z)|)
(assert (!
  (forall ((X |POW Z|) (Y |POW Z|))
    (forall ((f |POW (Z x Z)|))
      (= (|set.in POW (Z x Z)| f (|functions Z Z| X Y))
         (forall ((p |(Z x Z)|) (q |(Z x Z)|))
           (=> (and (|set.in (Z x Z)| p f) (|set.in (Z x Z)| q f) (= (fst p) (fst q)))
               (= (snd p) (snd q)))))))
:named |ax:set.in.functions (Z x Z)|))
(declare-fun |rel.domain Z Z| (|POW (Z x Z)|) |POW Z|)
(assert (!
  (forall ((r |POW (Z x Z)|) (e |Z|))
    (= (|set.in Z| e (|rel.domain Z Z| r))
       (exists ((y |Z|)) (|set.in (Z x Z)| (maplet e y) r))))
  :named |ax:set.in.domain (Z x Z)|))
(declare-fun |set.in (BOOL x Z)| (|(BOOL x Z)| |POW (BOOL x Z)|) Bool)
(declare-fun |functions.partial Z Z| (|POW Z| |POW Z|) |POW POW (Z x Z)|)
(assert (!
  (forall ((e1 |POW Z|) (e2 |POW Z|))
    (forall ((f |POW (Z x Z)|))
      (= (|set.in POW (Z x Z)| f (|functions.partial Z Z| e1 e2))
         (and (|set.in POW (Z x Z)| f (|relations Z Z| e1 e2))
              (|set.in POW (Z x Z)| f (|functions Z Z| e1 e2))))))
  :named |ax:def.pfun (Z x Z)|)
)
(declare-fun |relations.total Z Z| (|POW Z| |POW Z|) |POW POW (Z x Z)|)
(assert (!
  (forall ((X |POW Z|) (Y |POW Z|))
    (forall ((f |POW (Z x Z)|))
      (= (|set.in POW (Z x Z)| f (|relations.total Z Z| X Y))
         (= (|rel.domain Z Z| f) X))))
 :named |ax:set.in.relations.total (Z x Z)|))
(declare-const s45 |Z|)
(declare-const s40 |Z|)
(declare-const s27 |POW (BOOL x Z)|)
(declare-const s127 |Z|)
(declare-const s16 |POW Z|)
(declare-const s46 |Z|)
(declare-const s54 |Z|)
(declare-const s70 |Z|)
(declare-const s82 |Z|)
(declare-const s81 |Z|)
(declare-const s72 |Z|)
(declare-const s103 |Z|)
(declare-const s41 |Z|)
(declare-const s97 |POW (Z x Z)|)
(declare-const s110 |Z|)
(declare-const s91 |Z|)
(declare-const s61 |Z|)
(declare-const s42 |Z|)
(declare-const s57 |Z|)
(declare-const s105 |Z|)
(declare-const s95 |POW (Z x Z)|)
(declare-const s107 |Z|)
(declare-const s126 |Z|)
(declare-const s128 |Z|)
(declare-const s34 |Z|)
(declare-const s18 |POW Z|)
(declare-const s102 |Z|)
(declare-const s116 |Z|)
(declare-const s39 |Z|)
(declare-const s125 |Z|)
(declare-const s88 |Z|)
(declare-const s111 |Z|)
(declare-const s75 |Z|)
(declare-const s62 |Z|)
(declare-const s118 |Z|)
(declare-const s17 |POW Z|)
(declare-const s119 |Z|)
(declare-const s109 |Z|)
(declare-const s28 |Z|)
(declare-const s120 |Z|)
(declare-const s114 |Z|)
(declare-const s43 |Z|)
(declare-const s123 |Z|)
(declare-const s63 |Z|)
(declare-const s104 |Z|)
(declare-const s44 |Z|)
(declare-const s69 |Z|)
(declare-const s94 |Z|)
(declare-const s20 |Z|)
(declare-const s67 |Z|)
(declare-const s117 |Z|)
(declare-const s29 |Z|)
(declare-const s37 |Z|)
(declare-const s66 |Z|)
(declare-const s55 |Z|)
(declare-const s65 |Z|)
(declare-const s129 |Z|)
(declare-const s47 |Z|)
(declare-const s35 |Z|)
(declare-const s71 |Z|)
(declare-const s99 |Z|)
(declare-const s96 |POW (Z x Z)|)
(declare-const s98 |Z|)
(declare-const s121 |Z|)
(declare-const s86 |Z|)
(declare-const s100 |Z|)
(declare-const s19 |Z|)
(declare-const s73 |Z|)
(declare-const s21 |Z|)
(declare-const s130 |POW (Z x Z)|)
(declare-const s53 |Z|)
(declare-const s122 |Z|)
(declare-const s36 |Z|)
(declare-const s56 |Z|)
(declare-const s106 |Z|)
(declare-const s101 |Z|)
(declare-const s112 |Z|)
(declare-const s124 |Z|)
(declare-const s24 |Z|)
(declare-const s38 |Z|)
(declare-const s31 |Z|)
(declare-const s58 |Z|)
(declare-const s30 |Z|)
(declare-const s22 |Z|)
(declare-const s59 |Z|)
(declare-const s64 |Z|)
(declare-const s92 |Z|)
(declare-const s68 |Z|)
(declare-const s74 |Z|)
(declare-const s76 |Z|)
(declare-const s60 |Z|)
(declare-const s85 |Z|)
(declare-const s23 |Z|)
(declare-const s90 |Z|)
(declare-const s78 |Z|)
(declare-const s113 |Z|)
(declare-const s79 |Z|)
(declare-const s115 |Z|)
(declare-const s80 |Z|)
(declare-const s108 |Z|)
(declare-const s83 |Z|)
(declare-const s48 |Z|)
(declare-const s77 |Z|)
(declare-const s84 |Z|)
(declare-const s87 |Z|)
(declare-const s89 |Z|)
(declare-const s25 |Z|)
(declare-const s93 |Z|)
(declare-const s32 |Z|)
(declare-const s33 |Z|)
(declare-const s26 |POW Z|)
(declare-const s49 |Z|)
(declare-const s52 |Z|)
(declare-const s51 |Z|)
(declare-const s50 |Z|)
(define-sort |? (BOOL x Z)| () (-> |(BOOL x Z)| Bool))
(declare-const |set.intent (BOOL x Z)| (-> |? (BOOL x Z)| |POW (BOOL x Z)|))
(assert (!
  (forall ((p |? (BOOL x Z)|))
    (forall ((x |(BOOL x Z)|))
      (= (|set.in (BOOL x Z)| x (|set.intent (BOOL x Z)| p))
         (@ p x))))
  :named |ax:set.in.intent (BOOL x Z)|))
(declare-const NATURAL |POW Z|)
(assert (!
  (forall ((e |Z|)) (= (|set.in Z| e NATURAL) (<= 0 e)))
  :named |ax.set.in.NATURAL|))
(assert (!
  (forall ((s |POW Z|) (t |POW Z|))
    (=
      (= s t)
      (forall ((e |Z|)) (= (|set.in Z| e s) (|set.in Z| e t)))))
  :named |ax.set.eq Z|))
(declare-fun |interval| (|Z| |Z|) |POW Z|)
 (assert (!
    (forall ((l |Z|) (u |Z|) (e |Z|))
        (= (|set.in Z| e (|interval| l u))
            (and (<= l e) (<= e u))))
    :named |ax.set.in.interval|))
(declare-fun |functions.total Z Z| (|POW Z| |POW Z|) |POW POW (Z x Z)|)
(assert (!
  (forall ((e1 |POW Z|) (e2 |POW Z|))
    (forall ((f |POW (Z x Z)|))
      (= (|set.in POW (Z x Z)| f (|functions.total Z Z| e1 e2))
         (and (|set.in POW (Z x Z)| f (|functions.partial Z Z| e1 e2))
              (|set.in POW (Z x Z)| f (|relations.total Z Z| e1 e2))))))
  :named |ax:def.tfun (Z x Z)|))
(define-sort |? (Z x Z)| () (-> |(Z x Z)| Bool))
(declare-const |set.intent (Z x Z)| (-> |? (Z x Z)| |POW (Z x Z)|))
(assert (!
  (forall ((p |? (Z x Z)|))
    (forall ((x |(Z x Z)|))
      (= (|set.in (Z x Z)| x (|set.intent (Z x Z)| p))
         (@ p x))))
  :named |ax:set.in.intent (Z x Z)|))
(assert (!
  (forall ((s |POW (BOOL x Z)|) (t |POW (BOOL x Z)|))
    (=
      (= s t)
      (forall ((e |(BOOL x Z)|)) (= (|set.in (BOOL x Z)| e s) (|set.in (BOOL x Z)| e t)))))
  :named |ax.set.eq (BOOL x Z)|))
(define-sort |? Z| () (-> |Z| Bool))
(declare-const |set.intent Z| (-> |? Z| |POW Z|))
(assert (!
  (forall ((p |? Z|))
    (forall ((x |Z|))
      (= (|set.in Z| x (|set.intent Z| p))
         (@ p x))))
  :named |ax:set.in.intent Z|))
(declare-const NATURAL1 |POW Z|)
(assert (!
  (forall ((e |Z|)) (= (|set.in Z| e NATURAL1) (<= 1 e)))
  :named |ax.set.in.NATURAL1|))
(assert (!
  (= s17 (|interval| 0 65535))
  :named |Define:ctx:4|))
(assert (!
  (|set.in Z| s20 s17)
  :named |Define:ctx:7|))
(assert (!
  (|set.in Z| s28 s17)
  :named |Define:ctx:21|))
(assert (!
  (|set.in Z| s29 s17)
  :named |Define:ctx:22|))
(assert (!
  (|set.in Z| s39 s17)
  :named |Define:ctx:39|))
(assert (!
  (|set.in Z| s40 s17)
  :named |Define:ctx:40|))
(assert (!
  (|set.in Z| s94 s17)
  :named |Define:ctx:113|))
(assert (!
  (|set.in POW (Z x Z)| s96 (|functions.total Z Z| (|interval| 0 5) s17))
  :named |Define:ctx:115|))
(assert (!
  (|set.in POW (Z x Z)| s97 (|functions.total Z Z| (|interval| 0 5) s17))
  :named |Define:ctx:116|))
(assert (!
  (|set.in Z| s98 s17)
  :named |Define:ctx:117|))
(assert (!
  (|set.in Z| s99 s17)
  :named |Define:ctx:118|))
(assert (!
  (|set.in Z| s100 s17)
  :named |Define:ctx:120|))
(assert (!
  (|set.in Z| s101 s17)
  :named |Define:ctx:121|))
(assert (!
  (|set.in Z| s103 s17)
  :named |Define:ctx:124|))
(assert (!
  (|set.in Z| s104 s17)
  :named |Define:ctx:125|))
(assert (!
  (|set.in Z| s105 s17)
  :named |Define:ctx:126|))
(assert (!
  (|set.in Z| s106 s17)
  :named |Define:ctx:127|))
(assert (!
  (|set.in Z| s117 s17)
  :named |Define:ctx:144|))
(assert (!
  (|set.in Z| s118 s17)
  :named |Define:ctx:145|))
(assert (!
  (|set.in Z| s119 s17)
  :named |Define:ctx:150|))
(assert (!
  (|set.in Z| s120 s17)
  :named |Define:ctx:151|))
(assert (!
  (|set.in Z| s121 s17)
  :named |Define:ctx:152|))
(assert (!
  (|set.in Z| s122 s17)
  :named |Define:ctx:153|))
(assert (!
  (|set.in Z| s123 s17)
  :named |Define:ctx:158|))
(assert (!
  (|set.in Z| s129 s17)
  :named |Define:ctx:172|))
(assert (!
  (|set.in POW (Z x Z)| s130 (|functions.total Z Z| (|interval| 0 5) s17))
  :named |Define:ctx:173|))
(assert (!
  (= s20 65535)
  :named |Define:ctx:14|))
(assert (!
  (<= s39 s40)
  :named |Define:ctx:42|))
(assert (!
  (not
  (= s98 s99))
  :named |Define:ctx:119|))
(assert (!
  (= s102 (- s100 s101))
  :named |Define:ctx:123|))
(assert (!
  (= s118 (- s117 1))
  :named |Define:ctx:146|))
(assert (!
  (<= s118 s112)
  :named |Define:ctx:147|))
(assert (!
  (|set.in Z| s118 (|interval| 0 255))
  :named |Define:ctx:148|))
(assert (!
  (<= s112 s117)
  :named |Define:ctx:149|))
(assert (!
  (< s119 s118)
  :named |Define:ctx:154|))
(assert (!
  (< s122 s119)
  :named |Define:ctx:155|))
(assert (!
  (|set.in Z| s120 (|interval| 0 s118))
  :named |Define:ctx:156|))
(assert (!
  (|set.in Z| s121 (|interval| 0 s118))
  :named |Define:ctx:157|))
(assert (!
  (< 0 s123)
  :named |Define:ctx:159|))
(assert (!
  (< s123 s119)
  :named |Define:ctx:160|))
(assert (!
  (< s124 s119)
  :named |Define:ctx:163|))
(assert (!
  (< s125 s119)
  :named |Define:ctx:166|))
(assert (!
  (<= (+ s122 19) s112)
  :named |Define:ctx:174|))
(assert (!
  (<= s120 s110)
  :named |Define:ctx:175|))
(assert (!
  (<= s121 s110)
  :named |Define:ctx:176|))
(assert (!
  (<= 2 s123)
  :named |Define:ctx:179|))
(assert (!
  (<= s124 s123)
  :named |Define:ctx:180|))
(assert (!
  (<= s125 s123)
  :named |Define:ctx:182|))
(assert (!
  (|set.in Z| s102 NATURAL)
  :named |Define:ctx:122|))
(assert (!
  (|set.in Z| s110 s16)
  :named |Define:ctx:135|))
(assert (!
  (|set.in Z| s112 s16)
  :named |Define:ctx:137|))
(assert (!
  (|set.in Z| s124 s18)
  :named |Define:ctx:161|))
(assert (!
  (< 0 s124)
  :named |Define:ctx:162|))
(assert (!
  (|set.in Z| s125 s18)
  :named |Define:ctx:164|))
(assert (!
  (< 0 s125)
  :named |Define:ctx:165|))
(assert (!
  (<= 2 s124)
  :named |Define:ctx:177|))
(assert (!
  (<= 2 s125)
  :named |Define:ctx:178|))
(assert (!
  (<= s125 s124)
  :named |Define:ctx:181|))
(assert (!
  (= s16 (|interval| 0 4294967295))
  :named |Define:ctx:3|))
(assert (!
  (= s18 (|interval| 0 255))
  :named |Define:ctx:5|))
(assert (!
  (|set.in Z| s19 s16)
  :named |Define:ctx:6|))
(assert (!
  (|set.in Z| s21 s18)
  :named |Define:ctx:8|))
(assert (!
  (|set.in Z| s22 s18)
  :named |Define:ctx:9|))
(assert (!
  (|set.in Z| s23 s18)
  :named |Define:ctx:10|))
(assert (!
  (|set.in Z| s24 s18)
  :named |Define:ctx:11|))
(assert (!
  (|set.in Z| s25 s18)
  :named |Define:ctx:12|))
(assert (!
  (|set.in Z| s30 s16)
  :named |Define:ctx:23|))
(assert (!
  (|set.in Z| s31 s16)
  :named |Define:ctx:24|))
(assert (!
  (|set.in Z| s35 s18)
  :named |Define:ctx:32|))
(assert (!
  (|set.in Z| s36 s18)
  :named |Define:ctx:33|))
(assert (!
  (|set.in Z| s37 s18)
  :named |Define:ctx:35|))
(assert (!
  (|set.in Z| s38 s18)
  :named |Define:ctx:37|))
(assert (!
  (|set.in Z| s41 s18)
  :named |Define:ctx:41|))
(assert (!
  (|set.in Z| s42 s16)
  :named |Define:ctx:43|))
(assert (!
  (|set.in Z| s43 s16)
  :named |Define:ctx:44|))
(assert (!
  (|set.in Z| s44 s16)
  :named |Define:ctx:45|))
(assert (!
  (|set.in Z| s45 s16)
  :named |Define:ctx:46|))
(assert (!
  (|set.in Z| s46 s16)
  :named |Define:ctx:47|))
(assert (!
  (|set.in Z| s47 s18)
  :named |Define:ctx:48|))
(assert (!
  (|set.in Z| s48 s18)
  :named |Define:ctx:50|))
(assert (!
  (|set.in Z| s57 s18)
  :named |Define:ctx:61|))
(assert (!
  (|set.in Z| s58 s18)
  :named |Define:ctx:62|))
(assert (!
  (|set.in Z| s59 s18)
  :named |Define:ctx:64|))
(assert (!
  (|set.in Z| s60 s18)
  :named |Define:ctx:65|))
(assert (!
  (|set.in Z| s61 s18)
  :named |Define:ctx:67|))
(assert (!
  (|set.in Z| s62 s18)
  :named |Define:ctx:69|))
(assert (!
  (|set.in Z| s63 s18)
  :named |Define:ctx:71|))
(assert (!
  (|set.in Z| s64 s18)
  :named |Define:ctx:73|))
(assert (!
  (|set.in Z| s65 s18)
  :named |Define:ctx:75|))
(assert (!
  (|set.in Z| s66 s18)
  :named |Define:ctx:77|))
(assert (!
  (|set.in Z| s67 s16)
  :named |Define:ctx:79|))
(assert (!
  (|set.in Z| s68 s16)
  :named |Define:ctx:80|))
(assert (!
  (|set.in Z| s69 s16)
  :named |Define:ctx:81|))
(assert (!
  (|set.in Z| s70 s16)
  :named |Define:ctx:82|))
(assert (!
  (|set.in Z| s71 s16)
  :named |Define:ctx:83|))
(assert (!
  (|set.in Z| s72 s16)
  :named |Define:ctx:84|))
(assert (!
  (|set.in Z| s73 s16)
  :named |Define:ctx:85|))
(assert (!
  (|set.in Z| s74 s16)
  :named |Define:ctx:86|))
(assert (!
  (|set.in Z| s75 s16)
  :named |Define:ctx:87|))
(assert (!
  (|set.in Z| s76 s16)
  :named |Define:ctx:88|))
(assert (!
  (|set.in Z| s77 s16)
  :named |Define:ctx:89|))
(assert (!
  (|set.in Z| s78 s16)
  :named |Define:ctx:90|))
(assert (!
  (|set.in Z| s79 s16)
  :named |Define:ctx:91|))
(assert (!
  (|set.in Z| s80 s16)
  :named |Define:ctx:92|))
(assert (!
  (|set.in Z| s81 s16)
  :named |Define:ctx:93|))
(assert (!
  (|set.in Z| s82 s16)
  :named |Define:ctx:94|))
(assert (!
  (|set.in Z| s83 s16)
  :named |Define:ctx:95|))
(assert (!
  (|set.in Z| s84 s16)
  :named |Define:ctx:96|))
(assert (!
  (|set.in Z| s85 s16)
  :named |Define:ctx:97|))
(assert (!
  (|set.in Z| s86 s18)
  :named |Define:ctx:98|))
(assert (!
  (|set.in Z| s87 s18)
  :named |Define:ctx:101|))
(assert (!
  (|set.in Z| s88 s18)
  :named |Define:ctx:104|))
(assert (!
  (|set.in Z| s89 s18)
  :named |Define:ctx:105|))
(assert (!
  (|set.in Z| s90 s18)
  :named |Define:ctx:107|))
(assert (!
  (|set.in Z| s91 s18)
  :named |Define:ctx:108|))
(assert (!
  (|set.in Z| s92 s18)
  :named |Define:ctx:110|))
(assert (!
  (|set.in Z| s93 s18)
  :named |Define:ctx:111|))
(assert (!
  (|set.in POW (Z x Z)| s95 (|functions.total Z Z| (|interval| 0 5) s18))
  :named |Define:ctx:114|))
(assert (!
  (|set.in Z| s107 s18)
  :named |Define:ctx:128|))
(assert (!
  (|set.in Z| s108 s18)
  :named |Define:ctx:129|))
(assert (!
  (|set.in Z| s109 s16)
  :named |Define:ctx:134|))
(assert (!
  (|set.in Z| s111 s16)
  :named |Define:ctx:136|))
(assert (!
  (|set.in Z| s113 s16)
  :named |Define:ctx:138|))
(assert (!
  (|set.in Z| s114 s16)
  :named |Define:ctx:139|))
(assert (!
  (|set.in Z| s115 s16)
  :named |Define:ctx:141|))
(assert (!
  (|set.in Z| s116 s16)
  :named |Define:ctx:142|))
(assert (!
  (|set.in Z| s126 s18)
  :named |Define:ctx:167|))
(assert (!
  (|set.in Z| s127 s18)
  :named |Define:ctx:169|))
(assert (!
  (|set.in Z| s128 s16)
  :named |Define:ctx:171|))
(assert (!
  (= s19 4294967295)
  :named |Define:ctx:13|))
(assert (!
  (= s21 255)
  :named |Define:ctx:15|))
(assert (!
  (|set.in Z| s22 (|interval| 0 s21))
  :named |Define:ctx:16|))
(assert (!
  (|set.in Z| s23 (|interval| 0 s21))
  :named |Define:ctx:17|))
(assert (!
  (not
  (= s22 s23))
  :named |Define:ctx:18|))
(assert (!
  (= s26 (|set.intent Z| (lambda ((_c0 |Z|)) (or (= _c0 s22)(= _c0 s23)))))
  :named |Define:ctx:19|))
(assert (!
  (= s27 (|set.intent (BOOL x Z)| (lambda ((_c0 |(BOOL x Z)|)) (or (= _c0 (maplet true s22))(= _c0 (maplet false s23))))))
  :named |Define:ctx:20|))
(assert (!
  (= s36 (+ s35 s32))
  :named |Define:ctx:34|))
(assert (!
  (= s37 (+ s35 s33))
  :named |Define:ctx:36|))
(assert (!
  (= s38 (+ s35 s34))
  :named |Define:ctx:38|))
(assert (!
  (<= 2 s47)
  :named |Define:ctx:49|))
(assert (!
  (= s48 (- s47 1))
  :named |Define:ctx:51|))
(assert (!
  (<= 3 s48)
  :named |Define:ctx:52|))
(assert (!
  (= s58 (+ s57 s49))
  :named |Define:ctx:63|))
(assert (!
  (= s60 (+ s59 s50))
  :named |Define:ctx:66|))
(assert (!
  (= s61 (+ s59 s51))
  :named |Define:ctx:68|))
(assert (!
  (= s62 (+ s59 s52))
  :named |Define:ctx:70|))
(assert (!
  (= s63 (+ s59 s53))
  :named |Define:ctx:72|))
(assert (!
  (= s64 (+ s59 s54))
  :named |Define:ctx:74|))
(assert (!
  (= s65 (+ s59 s55))
  :named |Define:ctx:76|))
(assert (!
  (= s66 (+ s59 s56))
  :named |Define:ctx:78|))
(assert (!
  (<= 0 s86)
  :named |Define:ctx:99|))
(assert (!
  (<= 2 s86)
  :named |Define:ctx:100|))
(assert (!
  (= s87 (- s86 1))
  :named |Define:ctx:102|))
(assert (!
  (= (|interval| 0 s87) (|set.intent Z| (lambda ((_c0 |Z|)) (or (= _c0 0)(= _c0 1)(= _c0 2)(= _c0 3)(= _c0 4)(= _c0 5)))))
  :named |Define:ctx:103|))
(assert (!
  (= s89 (- s88 1))
  :named |Define:ctx:106|))
(assert (!
  (= s91 (- s90 1))
  :named |Define:ctx:109|))
(assert (!
  (= s93 (- s92 1))
  :named |Define:ctx:112|))
(assert (!
  (= s108 (- s107 1))
  :named |Define:ctx:130|))
(assert (!
  (= s92 (* s86 s107))
  :named |Define:ctx:131|))
(assert (!
  (<= 1 s107)
  :named |Define:ctx:132|))
(assert (!
  (< s107 s21)
  :named |Define:ctx:133|))
(assert (!
  (= s114 (- s113 1))
  :named |Define:ctx:140|))
(assert (!
  (= s116 (- s115 1))
  :named |Define:ctx:143|))
(assert (!
  (<= 4 s126)
  :named |Define:ctx:168|))
(assert (!
  (<= 7 s127)
  :named |Define:ctx:170|))
(assert (!
  (|set.in Z| s32 NATURAL)
  :named |Define:ctx:25|))
(assert (!
  (<= 2 s32)
  :named |Define:ctx:26|))
(assert (!
  (|set.in Z| s33 NATURAL)
  :named |Define:ctx:27|))
(assert (!
  (<= 2 s33)
  :named |Define:ctx:28|))
(assert (!
  (|set.in Z| s34 NATURAL)
  :named |Define:ctx:29|))
(assert (!
  (<= 2 s34)
  :named |Define:ctx:30|))
(assert (!
  (<= s32 s34)
  :named |Define:ctx:31|))
(assert (!
  (|set.in Z| s49 NATURAL1)
  :named |Define:ctx:53|))
(assert (!
  (|set.in Z| s50 NATURAL1)
  :named |Define:ctx:54|))
(assert (!
  (|set.in Z| s51 NATURAL1)
  :named |Define:ctx:55|))
(assert (!
  (|set.in Z| s52 NATURAL1)
  :named |Define:ctx:56|))
(assert (!
  (|set.in Z| s53 NATURAL1)
  :named |Define:ctx:57|))
(assert (!
  (|set.in Z| s54 NATURAL1)
  :named |Define:ctx:58|))
(assert (!
  (|set.in Z| s55 NATURAL1)
  :named |Define:ctx:59|))
(assert (!
  (|set.in Z| s56 NATURAL1)
  :named |Define:ctx:60|))
(assert (!
  (not
    (|set.in POW (Z x Z)| (|set.intent (Z x Z)| (lambda ((_c0 |(Z x Z)|)) (or (= _c0 (maplet 0 22767))(= _c0 (maplet 1 0))(= _c0 (maplet 2 0))(= _c0 (maplet 3 34367))(= _c0 (maplet 4 0))(= _c0 (maplet 5 0))))) (|functions.total Z Z| (|interval| 0 5) s17)))
  :named |Goal|))
(check-sat)
(exit)
